language ESSENCE' 1.0
letting lastdx=103
letting cage be [
[9,11,6,11,5,0,0, 0,0, 0,0],
[25,16,10,16,9,16,8,0,0, 0,0],
[22,8,10,8,11,0,0, 0,0, 0,0],
[6,12,5,0,0, 0,0, 0,0, 0,0],
[18,8,4,8,5,0,0, 0,0, 0,0],
[43,4,10,5,10,5,11,0,0, 0,0],
[10,3,10,0,0, 0,0, 0,0, 0,0],
[5,15,8,0,0, 0,0, 0,0, 0,0],
[2,1,10,0,0, 0,0, 0,0, 0,0],
[6,9,14,0,0, 0,0, 0,0, 0,0],
[10,16,5,0,0, 0,0, 0,0, 0,0],
[24,3,15,4,15,0,0, 0,0, 0,0],
[17,16,2,16,1,15,1,0,0, 0,0],
[16,7,6,0,0, 0,0, 0,0, 0,0],
[26,12,16,11,16,0,0, 0,0, 0,0],
[6,4,3,0,0, 0,0, 0,0, 0,0],
[16,13,13,0,0, 0,0, 0,0, 0,0],
[12,9,15,0,0, 0,0, 0,0, 0,0],
[7,13,8,0,0, 0,0, 0,0, 0,0],
[55,8,8,9,8,10,8,10,9,10,10],
[26,6,16,5,16,5,15,0,0, 0,0],
[38,11,9,11,8,11,7,10,7,0,0],
[15,13,11,0,0, 0,0, 0,0, 0,0],
[35,1,2,2,2,2,1,1,1,0,0],
[12,10,11,10,12,0,0, 0,0, 0,0],
[7,14,9,0,0, 0,0, 0,0, 0,0],
[15,7,9,7,10,0,0, 0,0, 0,0],
[42,12,1,11,1,11,2,12,2,12,3],
[1,10,3,0,0, 0,0, 0,0, 0,0],
[15,7,14,0,0, 0,0, 0,0, 0,0],
[16,8,15,0,0, 0,0, 0,0, 0,0],
[1,13,10,0,0, 0,0, 0,0, 0,0],
[4,14,13,0,0, 0,0, 0,0, 0,0],
[3,16,12,0,0, 0,0, 0,0, 0,0],
[42,15,2,15,3,14,3,14,2,13,2],
[46,6,4,6,5,5,5,5,6,5,7],
[27,13,1,14,1,0,0, 0,0, 0,0],
[4,9,6,0,0, 0,0, 0,0, 0,0],
[15,6,7,6,6,0,0, 0,0, 0,0],
[29,6,3,5,3,5,2,0,0, 0,0],
[15,3,5,0,0, 0,0, 0,0, 0,0],
[15,5,4,0,0, 0,0, 0,0, 0,0],
[36,10,14,10,13,9,13,0,0, 0,0],
[3,1,4,0,0, 0,0, 0,0, 0,0],
[16,8,6,8,7,9,7,0,0, 0,0],
[13,5,1,4,1,0,0, 0,0, 0,0],
[47,9,12,8,12,7,12,7,11,0,0],
[36,9,4,10,4,11,4,11,3,0,0],
[7,4,11,0,0, 0,0, 0,0, 0,0],
[31,7,16,7,15,6,15,6,14,0,0],
[40,13,6,13,7,14,7,14,8,0,0],
[14,2,5,0,0, 0,0, 0,0, 0,0],
[8,5,8,0,0, 0,0, 0,0, 0,0],
[20,8,13,8,14,0,0, 0,0, 0,0],
[47,12,7,12,6,12,8,12,9,13,9],
[36,7,3,7,2,6,2,0,0, 0,0],
[53,14,10,15,10,15,9,15,11,16,11],
[33,3,14,3,13,3,12,4,12,0,0],
[25,1,11,1,12,1,13,0,0, 0,0],
[21,16,6,16,7,15,7,0,0, 0,0],
[25,1,5,1,6,2,6,0,0, 0,0],
[5,16,14,0,0, 0,0, 0,0, 0,0],
[12,2,16,0,0, 0,0, 0,0, 0,0],
[39,2,3,1,3,3,3,3,4,2,4],
[24,4,5,4,4,0,0, 0,0, 0,0],
[9,15,16,0,0, 0,0, 0,0, 0,0],
[28,3,2,3,1,4,2,0,0, 0,0],
[17,9,11,9,10,0,0, 0,0, 0,0],
[9,3,9,0,0, 0,0, 0,0, 0,0],
[41,1,7,2,7,3,7,3,8,0,0],
[17,1,8,1,9,0,0, 0,0, 0,0],
[42,1,14,1,15,1,16,2,15,2,14],
[38,2,8,2,9,2,10,2,11,3,11],
[25,2,12,2,13,0,0, 0,0, 0,0],
[5,3,6,4,6,0,0, 0,0, 0,0],
[18,3,16,4,16,0,0, 0,0, 0,0],
[1,4,7,0,0, 0,0, 0,0, 0,0],
[13,4,13,4,14,0,0, 0,0, 0,0],
[35,5,12,6,12,6,11,6,10,6,9],
[11,5,13,5,14,0,0, 0,0, 0,0],
[13,6,1,7,1,0,0, 0,0, 0,0],
[6,6,8,0,0, 0,0, 0,0, 0,0],
[12,6,13,7,13,0,0, 0,0, 0,0],
[14,7,4,7,5,0,0, 0,0, 0,0],
[11,7,7,7,8,0,0, 0,0, 0,0],
[24,8,3,9,3,9,2,0,0, 0,0],
[11,8,9,9,9,0,0, 0,0, 0,0],
[38,9,5,10,5,10,6,0,0, 0,0],
[28,10,1,10,2,0,0, 0,0, 0,0],
[13,11,10,0,0, 0,0, 0,0, 0,0],
[7,11,11,11,12,12,12,0,0, 0,0],
[21,11,13,12,13,12,14,0,0, 0,0],
[10,12,4,0,0, 0,0, 0,0, 0,0],
[19,12,10,12,11,0,0, 0,0, 0,0],
[14,13,3,0,0, 0,0, 0,0, 0,0],
[5,13,4,0,0, 0,0, 0,0, 0,0],
[31,13,5,14,5,14,4,15,4,0,0],
[37,13,12,14,12,14,11,15,12,0,0],
[11,13,16,14,16,0,0, 0,0, 0,0],
[30,14,6,15,6,15,5,0,0, 0,0],
[31,14,14,14,15,15,15,15,14,0,0],
[27,15,13,16,13,0,0, 0,0, 0,0],
[12,16,3,16,4,0,0, 0,0, 0,0],
[21,16,15,16,16,0,0, 0,0, 0,0]
]
